(set-logic QF_S)
(declare-fun var0 () String)
(declare-fun var1 () String)
(declare-fun var2 () String)
(declare-fun var3 () String)
(declare-fun var4 () String)
(declare-fun var5 () String)
(declare-fun var6 () String)
(declare-fun var7 () String)
(declare-fun var8 () String)
(declare-fun var9 () String)
(declare-fun var10 () String)
(declare-fun var11 () String)
(declare-fun var12 () String)
(declare-fun var13 () String)
(declare-fun var14 () String)
(declare-fun var15 () String)
(declare-fun var16 () String)
(declare-fun var17 () String)
(declare-fun var18 () String)
(declare-fun var19 () String)
(declare-fun var20 () String)
(declare-fun var21 () String)
(declare-fun var22 () String)
(declare-fun var23 () String)
(declare-fun var24 () String)
(declare-fun var25 () String)
(declare-fun var26 () String)
(declare-fun var27 () String)
(declare-fun var28 () String)
(declare-fun var29 () String)
(declare-fun var30 () String)
(declare-fun var31 () String)
(declare-fun var32 () String)
(declare-fun var33 () String)
(declare-fun var34 () String)
(declare-fun var35 () String)
(declare-fun var36 () String)
(declare-fun var37 () String)
(declare-fun var38 () String)
(declare-fun var39 () String)
(declare-fun var40 () String)
(declare-fun var41 () String)
(declare-fun var42 () String)
(declare-fun var43 () String)
(declare-fun var44 () String)
(declare-fun var45 () String)
(declare-fun var46 () String)
(declare-fun var47 () String)
(declare-fun var48 () String)
(declare-fun var49 () String)
(declare-fun var50 () String)
(declare-fun var51 () String)
(declare-fun var52 () String)
(declare-fun var53 () String)
(declare-fun var54 () String)
(declare-fun var55 () String)
(declare-fun var56 () String)
(declare-fun var57 () String)
(declare-fun var58 () String)
(declare-fun var59 () String)
(declare-fun var60 () String)
(assert (= var0 (str.++ var1 var2)))
(assert (= var2 (str.++ var3 var4)))
(assert (= var4 (str.++ var5 var6)))
(assert (= var6 (str.++ var7 var8)))
(assert (= var8 (str.++ var9 var10)))
(assert (= var10 (str.++ var11 var12)))
(assert (= var12 (str.++ var13 var14)))
(assert (= var14 (str.++ var15 var16)))
(assert (= var16 (str.++ var17 var18)))
(assert (= var18 (str.++ var19 var20)))
(assert (= var20 (str.++ var21 var22)))
(assert (= var22 (str.++ var23 var24)))
(assert (= var24 (str.++ var25 var26)))
(assert (= var26 (str.++ var27 var28)))
(assert (= var28 (str.++ var29 var30)))
(assert (= var30 (str.++ var31 var32)))
(assert (= var32 (str.++ var33 var34)))
(assert (= var34 (str.++ var35 var36)))
(assert (= var36 (str.++ var37 var38)))
(assert (= var38 (str.++ var39 var40)))
(assert (= var40 (str.++ var41 var42)))
(assert (= var42 (str.++ var43 var44)))
(assert (= var44 (str.++ var45 var46)))
(assert (= var46 (str.++ var47 var48)))
(assert (= var48 (str.++ var49 var50)))
(assert (= var50 (str.++ var51 var52)))
(assert (= var52 (str.++ var53 var54)))
(assert (= var54 (str.++ var55 var56)))
(assert (= var56 (str.++ var57 var58)))
(assert (= var58 (str.++ var59 var60)))
(assert (= var0 "solution"))
(assert (= "J" (str.at var0 909)))
(assert (= "P" (str.at var58 28)))
(assert (= "I" (str.at var37 529)))
(assert (= "2" (str.at var58 978)))
(assert (= "x" (str.at var9 45)))
(assert (= "Q" (str.at var36 841)))
(assert (= "s" (str.at var57 102)))
(assert (= "G" (str.at var30 77)))
(assert (= "m" (str.at var56 68)))
(assert (= "R" (str.at var12 194)))
(assert (= "K" (str.at var33 591)))
(assert (= "_" (str.at var53 531)))
(assert (= "|" (str.at var28 519)))
(assert (= "(" (str.at var7 60)))
(assert (= "Q" (str.at var24 237)))
(assert (= "(" (str.at var47 602)))
(assert (= "m" (str.at var26 400)))
(assert (= "M" (str.at var19 913)))
(assert (= "2" (str.at var54 593)))
(assert (= "m" (str.at var24 573)))
(assert (= "$" (str.at var36 828)))
(assert (= "l" (str.at var20 670)))
(assert (= "o" (str.at var37 201)))
(assert (= "F" (str.at var21 80)))
(assert (= "P" (str.at var26 928)))
(assert (= "q" (str.at var46 151)))
(assert (= "(" (str.at var9 121)))
(assert (= "[" (str.at var4 361)))
(assert (= "B" (str.at var21 144)))
(assert (= ">" (str.at var27 543)))
(assert (= "e" (str.at var38 926)))
(assert (= "5" (str.at var11 146)))
(assert (= "7" (str.at var59 390)))
(assert (= "L" (str.at var23 954)))
(assert (= "r" (str.at var49 24)))
(assert (= "s" (str.at var60 368)))
(assert (= "[" (str.at var44 893)))
(assert (= "p" (str.at var36 889)))
(assert (= "9" (str.at var59 264)))
(assert (= "g" (str.at var26 831)))
(assert (= "l" (str.at var46 139)))
(assert (= "w" (str.at var40 402)))
(assert (= "x" (str.at var24 293)))
(assert (= "y" (str.at var20 674)))
(assert (= "W" (str.at var35 846)))
(assert (= "m" (str.at var30 349)))
(assert (= "B" (str.at var39 620)))
(assert (= "^" (str.at var43 905)))
(assert (= "h" (str.at var40 620)))
(assert (= "K" (str.at var10 128)))
(assert (= "F" (str.at var13 15)))
(assert (= "`" (str.at var51 784)))
(assert (= ">" (str.at var11 753)))
(assert (= "=" (str.at var47 383)))
(assert (= "c" (str.at var23 619)))
(assert (= "{" (str.at var16 904)))
(assert (= "F" (str.at var22 916)))
(assert (= "F" (str.at var56 431)))
(assert (= ";" (str.at var13 466)))
(assert (= "O" (str.at var21 212)))
(assert (= "R" (str.at var49 696)))
(assert (= "h" (str.at var59 603)))
(assert (= "@" (str.at var0 298)))
(assert (= "." (str.at var55 791)))
(assert (= "A" (str.at var44 32)))
(assert (= "X" (str.at var57 785)))
(assert (= "e" (str.at var49 624)))
(assert (= "," (str.at var15 879)))
(assert (= "C" (str.at var19 620)))
(assert (= "5" (str.at var14 993)))
(assert (= "q" (str.at var0 78)))
(assert (= "!" (str.at var53 611)))
(assert (= "w" (str.at var59 48)))
(assert (= "W" (str.at var48 200)))
(assert (= "p" (str.at var0 832)))
(assert (= "M" (str.at var2 645)))
(assert (= "4" (str.at var14 76)))
(assert (= "z" (str.at var53 460)))
(assert (= "m" (str.at var8 485)))
(assert (= "n" (str.at var42 250)))
(assert (= "1" (str.at var30 214)))
(assert (= "/" (str.at var1 678)))
(assert (= "[" (str.at var15 552)))
(assert (= "g" (str.at var55 589)))
(assert (= "h" (str.at var48 362)))
(assert (= """" (str.at var33 714)))
(assert (= "w" (str.at var50 509)))
(assert (= "?" (str.at var23 816)))
(assert (= "w" (str.at var41 5)))
(assert (= "d" (str.at var1 646)))
(assert (= "S" (str.at var10 564)))
(assert (= "A" (str.at var41 487)))
(assert (= "2" (str.at var20 724)))
(assert (= "1" (str.at var16 739)))
(assert (= ">" (str.at var40 601)))
(assert (= "6" (str.at var4 18)))
(assert (= "8" (str.at var51 303)))
(assert (= "z" (str.at var27 515)))
(assert (= "_" (str.at var50 524)))
(assert (= "b" (str.at var37 548)))
(assert (= "?" (str.at var47 858)))
(assert (= "%" (str.at var60 120)))
(assert (= "|" (str.at var9 704)))
(assert (= "z" (str.at var26 153)))
(assert (= "%" (str.at var36 862)))
(assert (= "Q" (str.at var3 568)))
(assert (= "R" (str.at var3 867)))
(assert (= "`" (str.at var44 606)))
(assert (= "2" (str.at var26 424)))
(assert (= "e" (str.at var13 624)))
(assert (= "L" (str.at var52 800)))
(assert (= "L" (str.at var41 309)))
(assert (= "~" (str.at var48 203)))
(assert (= "|" (str.at var44 72)))
(assert (= "2" (str.at var42 391)))
(assert (= "[" (str.at var29 958)))
(assert (= "J" (str.at var28 825)))
(assert (= "8" (str.at var52 119)))
(assert (= "I" (str.at var20 187)))
(assert (= "$" (str.at var11 85)))
(assert (= "3" (str.at var20 551)))
(assert (= "V" (str.at var54 751)))
(assert (= "E" (str.at var3 46)))
(assert (= ";" (str.at var32 573)))
(assert (= "L" (str.at var15 884)))
(assert (= "." (str.at var1 453)))
(assert (= "f" (str.at var42 588)))
(assert (= "S" (str.at var2 783)))
(assert (= "9" (str.at var51 165)))
(assert (= "2" (str.at var58 13)))
(assert (= "T" (str.at var2 845)))
(assert (= "+" (str.at var38 319)))
(assert (= "i" (str.at var44 701)))
(assert (= "j" (str.at var31 919)))
(assert (= ":" (str.at var44 479)))
(assert (= ";" (str.at var36 39)))
(assert (= "+" (str.at var15 245)))
(assert (= "z" (str.at var25 983)))
(assert (= "z" (str.at var44 732)))
(assert (= "c" (str.at var9 251)))
(assert (= "m" (str.at var41 537)))
(assert (= "`" (str.at var22 815)))
(assert (= "'" (str.at var35 60)))
(assert (= "p" (str.at var50 127)))
(assert (= "K" (str.at var56 838)))
(assert (= "x" (str.at var56 87)))
(assert (= "?" (str.at var2 955)))
(assert (= "k" (str.at var39 826)))
(assert (= "+" (str.at var51 712)))
(assert (= "t" (str.at var11 369)))
(assert (= "C" (str.at var16 985)))
(assert (= "4" (str.at var14 506)))
(assert (= "=" (str.at var24 779)))
(assert (= "0" (str.at var20 50)))
(assert (= ">" (str.at var12 725)))
(assert (= "S" (str.at var53 810)))
(assert (= ")" (str.at var17 309)))
(assert (= "{" (str.at var26 505)))
(assert (= "{" (str.at var27 49)))
(assert (= "#" (str.at var32 400)))
(assert (= "K" (str.at var1 154)))
(assert (= "i" (str.at var26 85)))
(assert (= "~" (str.at var48 785)))
(assert (= "{" (str.at var19 77)))
(assert (= "A" (str.at var40 19)))
(assert (= "?" (str.at var29 445)))
(assert (= "9" (str.at var28 871)))
(assert (= "]" (str.at var39 834)))
(assert (= "e" (str.at var29 573)))
(assert (= "b" (str.at var49 941)))
(assert (= "." (str.at var51 918)))
(assert (= "Z" (str.at var43 916)))
(assert (= "%" (str.at var48 206)))
(assert (= "*" (str.at var53 615)))
(assert (= "V" (str.at var4 631)))
(assert (= "S" (str.at var26 601)))
(assert (= "g" (str.at var36 911)))
(assert (= "'" (str.at var12 217)))
(assert (= "r" (str.at var25 285)))
(assert (= "B" (str.at var34 903)))
(assert (= "z" (str.at var11 100)))
(assert (= "," (str.at var38 943)))
(assert (= "6" (str.at var45 477)))
(assert (= "q" (str.at var7 800)))
(assert (= "&" (str.at var43 798)))
(assert (= "(" (str.at var41 602)))
(assert (= "9" (str.at var52 536)))
(assert (= "X" (str.at var28 556)))
(assert (= ">" (str.at var58 67)))
(assert (= "Z" (str.at var59 951)))
(assert (= "d" (str.at var1 872)))
(assert (= "8" (str.at var2 936)))
(assert (= "#" (str.at var31 461)))
(assert (= "W" (str.at var56 669)))
(assert (= "l" (str.at var37 62)))
(assert (= "G" (str.at var19 876)))
(assert (= "m" (str.at var14 569)))
(assert (= "M" (str.at var10 998)))
(assert (= "G" (str.at var47 863)))
(assert (= "O" (str.at var43 978)))
(assert (= "c" (str.at var21 729)))
(assert (= "_" (str.at var8 891)))
(assert (= "I" (str.at var4 483)))
(assert (= "F" (str.at var33 419)))
(assert (= "Z" (str.at var33 908)))
(assert (= "{" (str.at var25 901)))
(assert (= "," (str.at var1 411)))
(assert (= "<" (str.at var6 90)))
(assert (= "_" (str.at var21 102)))
(assert (= "6" (str.at var55 351)))
(assert (= "J" (str.at var46 662)))
(assert (= "G" (str.at var10 484)))
(assert (= "h" (str.at var49 704)))
(assert (= "<" (str.at var41 899)))
(assert (= "^" (str.at var24 593)))
(assert (= "k" (str.at var53 747)))
(assert (= "<" (str.at var55 440)))
(assert (= "5" (str.at var32 470)))
(assert (= "b" (str.at var54 951)))
(assert (= "v" (str.at var12 462)))
(assert (= "s" (str.at var10 645)))
(assert (= "?" (str.at var60 343)))
(assert (= "`" (str.at var33 532)))
(assert (= "I" (str.at var54 720)))
(assert (= "i" (str.at var49 429)))
(assert (= "r" (str.at var34 952)))
(assert (= "8" (str.at var9 804)))
(assert (= "-" (str.at var18 60)))
(assert (= "." (str.at var43 197)))
(assert (= "9" (str.at var29 938)))
(assert (= "@" (str.at var20 495)))
(assert (= "9" (str.at var28 434)))
(assert (= "q" (str.at var14 463)))
(assert (= "&" (str.at var33 140)))
(assert (= "y" (str.at var2 446)))
(assert (= "1" (str.at var25 549)))
(assert (= "X" (str.at var58 409)))
(assert (= """" (str.at var7 190)))
(assert (= "w" (str.at var59 767)))
(assert (= "'" (str.at var51 533)))
(assert (= "w" (str.at var60 983)))
(assert (= "X" (str.at var50 668)))
(assert (= "U" (str.at var41 933)))
(assert (= "X" (str.at var39 413)))
(assert (= "7" (str.at var2 352)))
(assert (= "g" (str.at var4 947)))
(assert (= "T" (str.at var43 243)))
(assert (= "p" (str.at var17 304)))
(assert (= "j" (str.at var20 192)))
(assert (= "8" (str.at var26 179)))
(assert (= "%" (str.at var49 91)))
(assert (= "s" (str.at var52 609)))
(assert (= "#" (str.at var27 427)))
(assert (= "+" (str.at var46 995)))
(assert (= "k" (str.at var35 840)))
(assert (= "a" (str.at var8 381)))
(assert (= "O" (str.at var26 238)))
(assert (= "m" (str.at var52 606)))
(assert (= "$" (str.at var7 667)))
(assert (= "u" (str.at var22 553)))
(assert (= "D" (str.at var55 672)))
(assert (= "C" (str.at var42 642)))
(assert (= "8" (str.at var34 302)))
(assert (= "`" (str.at var16 75)))
(assert (= "H" (str.at var0 860)))
(assert (= "V" (str.at var34 475)))
(assert (= "s" (str.at var22 859)))
(assert (= "w" (str.at var17 691)))
(assert (= "q" (str.at var22 120)))
(assert (= "q" (str.at var5 573)))
(assert (= "~" (str.at var37 774)))
(assert (= "*" (str.at var58 827)))
(assert (= "{" (str.at var43 562)))
(assert (= "v" (str.at var16 435)))
(assert (= "1" (str.at var15 823)))
(assert (= "}" (str.at var19 796)))
(assert (= "m" (str.at var3 198)))
(assert (= "(" (str.at var36 308)))
(assert (= "R" (str.at var13 288)))
(assert (= "{" (str.at var3 718)))
(assert (= "6" (str.at var27 661)))
(assert (= "]" (str.at var57 59)))
(assert (= "N" (str.at var55 325)))
(assert (= "1" (str.at var3 800)))
(assert (= "E" (str.at var39 629)))
(assert (= "R" (str.at var50 952)))
(assert (= "b" (str.at var29 218)))
(assert (= "*" (str.at var4 918)))
(assert (= "C" (str.at var23 287)))
(assert (= "4" (str.at var48 359)))
(assert (= "P" (str.at var36 324)))
(assert (= "." (str.at var13 39)))
(assert (= "M" (str.at var53 683)))
(assert (= "H" (str.at var51 660)))
(assert (= "^" (str.at var9 338)))
(assert (= "j" (str.at var29 953)))
(assert (= "X" (str.at var4 187)))
(assert (= "7" (str.at var57 981)))
(assert (= "." (str.at var17 761)))
(assert (= "s" (str.at var29 253)))
(assert (= "0" (str.at var11 48)))
(assert (= "X" (str.at var29 860)))
(assert (= "0" (str.at var49 221)))
(assert (= "e" (str.at var15 123)))
(assert (= "q" (str.at var12 894)))
(assert (= ")" (str.at var0 749)))
(assert (= "$" (str.at var46 310)))
(assert (= "%" (str.at var55 58)))
(assert (= "'" (str.at var25 231)))
(assert (= "z" (str.at var9 897)))
(assert (= "G" (str.at var15 972)))
(assert (= "5" (str.at var60 671)))
(assert (= "e" (str.at var9 947)))
(assert (= "m" (str.at var12 348)))
(assert (= "Q" (str.at var58 843)))
(assert (= "i" (str.at var15 206)))
(assert (= """" (str.at var40 663)))
(assert (= "A" (str.at var52 654)))
(assert (= "$" (str.at var43 293)))
(assert (= "k" (str.at var33 269)))
(assert (= "A" (str.at var17 563)))
(assert (= "=" (str.at var26 777)))
(assert (= "y" (str.at var55 797)))
(assert (= "Q" (str.at var7 331)))
(assert (= "/" (str.at var47 792)))
(assert (= "." (str.at var48 334)))
(assert (= "!" (str.at var25 87)))
(assert (= "s" (str.at var59 297)))
(assert (= "z" (str.at var36 930)))
(assert (= "#" (str.at var19 182)))
(assert (= "d" (str.at var6 379)))
(assert (= "c" (str.at var0 941)))
(assert (= "f" (str.at var43 605)))
(assert (= "i" (str.at var16 643)))
(assert (= ")" (str.at var13 727)))
(assert (= "G" (str.at var54 639)))
(assert (= ">" (str.at var34 811)))
(assert (= "c" (str.at var52 741)))
(assert (= "E" (str.at var56 986)))
(assert (= "1" (str.at var38 633)))
(assert (= "X" (str.at var3 984)))
(assert (= "A" (str.at var22 274)))
(assert (= "c" (str.at var19 69)))
(assert (= "#" (str.at var46 490)))
(assert (= "|" (str.at var33 168)))
(assert (= "y" (str.at var2 794)))
(assert (= "2" (str.at var52 713)))
(assert (= "t" (str.at var28 68)))
(assert (= "T" (str.at var8 441)))
(assert (= "_" (str.at var57 26)))
(assert (= "$" (str.at var22 487)))
(assert (= "h" (str.at var56 998)))
(assert (= "m" (str.at var8 675)))
(assert (= "\\" (str.at var52 417)))
(assert (= "Y" (str.at var28 926)))
(assert (= "p" (str.at var16 254)))
(assert (= "P" (str.at var16 701)))
(assert (= "J" (str.at var2 726)))
(assert (= "v" (str.at var10 887)))
(assert (= "G" (str.at var30 369)))
(assert (= "Q" (str.at var5 337)))
(assert (= "n" (str.at var14 414)))
(assert (= "|" (str.at var46 114)))
(assert (= "F" (str.at var44 317)))
(assert (= "1" (str.at var18 306)))
(assert (= ")" (str.at var14 267)))
(assert (= "l" (str.at var26 123)))
(assert (= "." (str.at var4 300)))
(assert (= "k" (str.at var48 223)))
(assert (= "y" (str.at var10 330)))
(assert (= "r" (str.at var21 345)))
(assert (= "y" (str.at var7 34)))
(assert (= "T" (str.at var27 840)))
(assert (= "J" (str.at var1 918)))
(assert (= "t" (str.at var56 542)))
(assert (= "N" (str.at var47 748)))
(assert (= "u" (str.at var50 531)))
(assert (= "$" (str.at var57 514)))
(assert (= "6" (str.at var3 488)))
(assert (= "T" (str.at var39 148)))
(assert (= "[" (str.at var46 479)))
(assert (= "8" (str.at var32 696)))
(assert (= "O" (str.at var31 807)))
(assert (= ";" (str.at var59 2)))
(assert (= "6" (str.at var38 579)))
(assert (= "-" (str.at var27 28)))
(assert (= "l" (str.at var4 507)))
(assert (= "M" (str.at var8 333)))
(assert (= "M" (str.at var53 232)))
(assert (= "A" (str.at var26 176)))
(assert (= """" (str.at var38 191)))
(assert (= "5" (str.at var35 182)))
(assert (= "+" (str.at var27 251)))
(assert (= "}" (str.at var8 528)))
(assert (= "K" (str.at var44 621)))
(assert (= "R" (str.at var31 231)))
(assert (= "{" (str.at var56 751)))
(assert (= "B" (str.at var1 204)))
(assert (= "l" (str.at var47 526)))
(assert (= "$" (str.at var53 157)))
(assert (= "y" (str.at var55 490)))
(assert (= "R" (str.at var49 443)))
(assert (= "," (str.at var24 911)))
(assert (= "1" (str.at var33 522)))
(assert (= "*" (str.at var60 367)))
(assert (= "@" (str.at var46 156)))
(assert (= "<" (str.at var58 516)))
(assert (= "%" (str.at var16 564)))
(assert (= "B" (str.at var20 184)))
(assert (= "~" (str.at var34 824)))
(assert (= "N" (str.at var24 686)))
(assert (= "." (str.at var52 135)))
(assert (= "I" (str.at var57 983)))
(assert (= "M" (str.at var6 634)))
(assert (= "|" (str.at var5 160)))
(assert (= "," (str.at var29 827)))
(assert (= "q" (str.at var9 929)))
(assert (= "u" (str.at var54 900)))
(assert (= "F" (str.at var39 909)))
(assert (= "*" (str.at var29 893)))
(assert (= "i" (str.at var20 468)))
(assert (= "@" (str.at var57 935)))
(assert (= "j" (str.at var42 46)))
(assert (= "*" (str.at var34 483)))
(assert (= "_" (str.at var15 865)))
(assert (= "." (str.at var29 304)))
(assert (= "_" (str.at var44 731)))
(assert (= "9" (str.at var22 457)))
(assert (= "-" (str.at var23 751)))
(assert (= "#" (str.at var49 150)))
(assert (= "t" (str.at var40 816)))
(assert (= "P" (str.at var39 715)))
(assert (= "B" (str.at var16 550)))
(assert (= "!" (str.at var12 143)))
(assert (= "<" (str.at var17 251)))
(assert (= "p" (str.at var49 800)))
(assert (= "." (str.at var19 411)))
(assert (= "B" (str.at var50 302)))
(assert (= "/" (str.at var19 933)))
(assert (= "e" (str.at var35 945)))
(assert (= "X" (str.at var39 335)))
(assert (= "i" (str.at var55 967)))
(assert (= "y" (str.at var16 902)))
(assert (= "1" (str.at var5 535)))
(assert (= "'" (str.at var50 887)))
(assert (= "y" (str.at var59 171)))
(assert (= "4" (str.at var55 640)))
(assert (= "W" (str.at var5 968)))
(assert (= "M" (str.at var11 144)))
(assert (= "y" (str.at var37 801)))
(assert (= "s" (str.at var57 134)))
(assert (= "a" (str.at var19 273)))
(assert (= "I" (str.at var46 774)))
(assert (= "'" (str.at var4 558)))
(assert (= "K" (str.at var32 973)))
(assert (= "e" (str.at var0 650)))
(assert (= "x" (str.at var59 679)))
(assert (= "!" (str.at var8 983)))
(assert (= "1" (str.at var44 507)))
(assert (= "6" (str.at var38 230)))
(assert (= "l" (str.at var30 770)))
(assert (= "I" (str.at var54 364)))
(assert (= "m" (str.at var52 815)))
(assert (= "$" (str.at var49 915)))
(assert (= "," (str.at var44 308)))
(assert (= "7" (str.at var40 947)))
(assert (= "G" (str.at var14 41)))
(assert (= "N" (str.at var43 263)))
(assert (= "[" (str.at var22 61)))
(assert (= ">" (str.at var5 425)))
(assert (= "O" (str.at var60 842)))
(assert (= ")" (str.at var49 233)))
(assert (= "1" (str.at var14 806)))
(assert (= "D" (str.at var53 347)))
(assert (= "K" (str.at var56 468)))
(assert (= "/" (str.at var27 253)))
(assert (= "~" (str.at var15 913)))
(assert (= "g" (str.at var3 498)))
(assert (= "X" (str.at var1 903)))
(assert (= ">" (str.at var46 84)))
(assert (= "H" (str.at var36 645)))
(assert (= "}" (str.at var58 290)))
(assert (= "K" (str.at var8 576)))
(assert (= "f" (str.at var44 960)))
(assert (= "d" (str.at var54 167)))
(assert (= "x" (str.at var48 265)))
(assert (= "o" (str.at var18 495)))
(assert (= "9" (str.at var36 237)))
(assert (= "9" (str.at var49 753)))
(assert (= "c" (str.at var21 439)))
(assert (= "<" (str.at var22 752)))
(assert (= "c" (str.at var36 422)))
(assert (= "0" (str.at var55 661)))
(assert (= "f" (str.at var55 304)))
(assert (= "k" (str.at var25 204)))
(assert (= "S" (str.at var23 137)))
(assert (= ":" (str.at var53 782)))
(assert (= "Z" (str.at var3 469)))
(assert (= "W" (str.at var22 855)))
(assert (= ")" (str.at var28 123)))
(assert (= "8" (str.at var49 949)))
(assert (= "^" (str.at var36 702)))
(assert (= "s" (str.at var29 685)))
(assert (= "<" (str.at var29 563)))
(assert (= "/" (str.at var36 258)))
(assert (= "d" (str.at var20 932)))
(assert (= "(" (str.at var8 599)))
(assert (= "Q" (str.at var24 927)))
(assert (= "7" (str.at var19 906)))
(assert (= "9" (str.at var55 804)))
(assert (= "o" (str.at var60 286)))
(assert (= "<" (str.at var58 921)))
(assert (= ":" (str.at var42 215)))
(assert (= "I" (str.at var15 573)))
(assert (= "p" (str.at var24 455)))
(assert (= "o" (str.at var3 523)))
(assert (= "h" (str.at var30 329)))
(assert (= "=" (str.at var37 321)))
(assert (= "F" (str.at var58 870)))
(assert (= "+" (str.at var6 132)))
(assert (= "l" (str.at var34 3)))
(assert (= "`" (str.at var30 331)))
(assert (= "]" (str.at var19 635)))
(assert (= "g" (str.at var45 800)))
(assert (= "d" (str.at var11 321)))
(assert (= "L" (str.at var29 630)))
(assert (= "Q" (str.at var7 538)))
(assert (= "*" (str.at var0 660)))
(assert (= "|" (str.at var42 515)))
(assert (= "v" (str.at var15 113)))
(assert (= "D" (str.at var40 159)))
(assert (= "q" (str.at var43 712)))
(assert (= "z" (str.at var23 778)))
(assert (= "U" (str.at var25 859)))
(assert (= "V" (str.at var53 135)))
(assert (= "p" (str.at var40 449)))
(assert (= "K" (str.at var8 385)))
(assert (= "1" (str.at var26 837)))
(assert (= ";" (str.at var34 736)))
(assert (= "W" (str.at var21 715)))
(assert (= "E" (str.at var45 462)))
(assert (= "e" (str.at var51 208)))
(assert (= "$" (str.at var43 682)))
(assert (= """" (str.at var1 605)))
(assert (= "f" (str.at var49 737)))
(assert (= "i" (str.at var56 32)))
(assert (= "1" (str.at var51 914)))
(assert (= "I" (str.at var54 117)))
(assert (= "w" (str.at var16 469)))
(assert (= "M" (str.at var30 856)))
(assert (= "x" (str.at var10 551)))
(assert (= "o" (str.at var8 553)))
(assert (= "r" (str.at var53 680)))
(assert (= "g" (str.at var25 721)))
(assert (= "*" (str.at var36 212)))
(assert (= "z" (str.at var13 145)))
(assert (= "%" (str.at var14 937)))
(assert (= "p" (str.at var38 732)))
(assert (= "t" (str.at var0 459)))
(assert (= "j" (str.at var32 142)))
(assert (= "K" (str.at var49 714)))
(assert (= "T" (str.at var45 804)))
(assert (= "G" (str.at var22 237)))
(assert (= ":" (str.at var22 355)))
(assert (= "~" (str.at var42 151)))
(assert (= ")" (str.at var57 524)))
(assert (= ")" (str.at var19 300)))
(assert (= "p" (str.at var32 295)))
(assert (= "P" (str.at var46 242)))
(assert (= "S" (str.at var53 794)))
(assert (= ">" (str.at var33 277)))
(assert (= "|" (str.at var8 392)))
(assert (= "b" (str.at var35 289)))
(assert (= "N" (str.at var17 639)))
(assert (= "?" (str.at var43 393)))
(assert (= "y" (str.at var13 275)))
(assert (= "#" (str.at var33 354)))
(assert (= "d" (str.at var27 815)))
(assert (= "_" (str.at var12 712)))
(assert (= "C" (str.at var42 182)))
(assert (= "{" (str.at var31 143)))
(assert (= "_" (str.at var32 182)))
(assert (= "_" (str.at var57 965)))
(assert (= "@" (str.at var36 274)))
(assert (= "-" (str.at var46 215)))
(assert (= "v" (str.at var43 201)))
(assert (= "+" (str.at var56 294)))
(assert (= "~" (str.at var28 765)))
(assert (= "q" (str.at var10 432)))
(assert (= "a" (str.at var60 64)))
(assert (= "\\" (str.at var3 593)))
(assert (= "c" (str.at var29 317)))
(assert (= "0" (str.at var60 81)))
(assert (= "z" (str.at var52 121)))
(assert (= "%" (str.at var47 42)))
(assert (= "m" (str.at var24 903)))
(assert (= "!" (str.at var32 888)))
(assert (= "+" (str.at var14 299)))
(assert (= "V" (str.at var5 71)))
(assert (= "K" (str.at var46 677)))
(assert (= "K" (str.at var10 343)))
(assert (= "b" (str.at var46 730)))
(assert (= "M" (str.at var29 291)))
(assert (= "w" (str.at var41 490)))
(assert (= "W" (str.at var44 1)))
(assert (= "C" (str.at var8 750)))
(assert (= "7" (str.at var6 630)))
(assert (= "&" (str.at var1 762)))
(assert (= "[" (str.at var49 148)))
(assert (= "(" (str.at var2 650)))
(assert (= "7" (str.at var35 178)))
(assert (= "g" (str.at var45 824)))
(assert (= "C" (str.at var50 690)))
(assert (= "(" (str.at var28 114)))
(assert (= "2" (str.at var30 440)))
(assert (= "K" (str.at var43 964)))
(assert (= "!" (str.at var47 943)))
(assert (= "V" (str.at var4 277)))
(assert (= "7" (str.at var27 977)))
(assert (= "f" (str.at var10 0)))
(assert (= "J" (str.at var19 341)))
(assert (= "e" (str.at var0 355)))
(assert (= "u" (str.at var15 655)))
(assert (= "3" (str.at var25 227)))
(assert (= "u" (str.at var41 974)))
(assert (= "E" (str.at var53 839)))
(assert (= "q" (str.at var37 757)))
(assert (= "q" (str.at var39 873)))
(assert (= "Y" (str.at var29 885)))
(assert (= "!" (str.at var27 228)))
(assert (= ")" (str.at var11 431)))
(assert (= "m" (str.at var33 416)))
(assert (= "T" (str.at var20 552)))
(assert (= "M" (str.at var7 886)))
(assert (= "h" (str.at var50 163)))
(assert (= "Z" (str.at var18 802)))
(assert (= "l" (str.at var29 946)))
(assert (= "+" (str.at var24 378)))
(assert (= "+" (str.at var6 533)))
(assert (= "/" (str.at var35 332)))
(assert (= "v" (str.at var24 702)))
(assert (= """" (str.at var41 194)))
(assert (= "O" (str.at var28 26)))
(assert (= "6" (str.at var50 291)))
(assert (= "f" (str.at var26 97)))
(assert (= "<" (str.at var21 53)))
(assert (= "$" (str.at var38 474)))
(assert (= ";" (str.at var2 583)))
(assert (= "[" (str.at var1 227)))
(assert (= "." (str.at var19 141)))
(assert (= "[" (str.at var42 525)))
(assert (= "O" (str.at var58 509)))
(assert (= "<" (str.at var32 458)))
(assert (= "N" (str.at var0 234)))
(assert (= "s" (str.at var34 615)))
(assert (= "@" (str.at var4 901)))
(assert (= "Z" (str.at var3 544)))
(assert (= "-" (str.at var33 19)))
(assert (= "y" (str.at var60 264)))
(assert (= "U" (str.at var18 708)))
(assert (= "Z" (str.at var39 878)))
(assert (= "6" (str.at var48 326)))
(assert (= "Y" (str.at var13 412)))
(assert (= "J" (str.at var11 591)))
(assert (= "o" (str.at var29 799)))
(assert (= "I" (str.at var37 851)))
(assert (= "%" (str.at var51 553)))
(assert (= "Z" (str.at var33 431)))
(assert (= "y" (str.at var34 172)))
(assert (= "U" (str.at var54 26)))
(assert (= "e" (str.at var45 631)))
(assert (= ";" (str.at var30 645)))
(assert (= "s" (str.at var57 201)))
(assert (= "C" (str.at var3 524)))
(assert (= "s" (str.at var8 960)))
(assert (= "B" (str.at var7 660)))
(assert (= "%" (str.at var23 557)))
(assert (= "L" (str.at var50 164)))
(assert (= "%" (str.at var59 280)))
(assert (= ">" (str.at var51 491)))
(assert (= "J" (str.at var33 155)))
(assert (= "[" (str.at var56 627)))
(assert (= "d" (str.at var31 157)))
(assert (= "!" (str.at var42 382)))
(assert (= "h" (str.at var60 530)))
(assert (= "8" (str.at var28 842)))
(assert (= "G" (str.at var7 44)))
(assert (= "3" (str.at var58 88)))
(assert (= "s" (str.at var1 234)))
(assert (= "X" (str.at var14 768)))
(assert (= "y" (str.at var45 817)))
(assert (= "a" (str.at var57 885)))
(assert (= "6" (str.at var2 88)))
(assert (= "k" (str.at var2 670)))
(assert (= "%" (str.at var31 731)))
(assert (= ">" (str.at var14 431)))
(assert (= "V" (str.at var34 469)))
(assert (= "6" (str.at var52 2)))
(assert (= "!" (str.at var28 622)))
(assert (= "F" (str.at var42 460)))
(assert (= "c" (str.at var11 992)))
(assert (= "f" (str.at var24 429)))
(assert (= "(" (str.at var46 550)))
(assert (= "Q" (str.at var34 667)))
(assert (= "B" (str.at var24 698)))
(assert (= "+" (str.at var11 947)))
(assert (= "@" (str.at var14 914)))
(assert (= "?" (str.at var23 475)))
(assert (= "{" (str.at var19 467)))
(assert (= "8" (str.at var4 618)))
(assert (= "6" (str.at var52 185)))
(assert (= "Y" (str.at var12 893)))
(assert (= "e" (str.at var12 517)))
(assert (= "3" (str.at var0 34)))
(assert (= "p" (str.at var28 628)))
(assert (= "O" (str.at var9 103)))
(assert (= "#" (str.at var16 859)))
(assert (= "T" (str.at var8 760)))
(assert (= "o" (str.at var43 140)))
(assert (= "C" (str.at var23 293)))
(assert (= "*" (str.at var44 84)))
(assert (= "e" (str.at var29 626)))
(assert (= "Z" (str.at var33 321)))
(assert (= "D" (str.at var54 887)))
(assert (= "]" (str.at var10 713)))
(assert (= "g" (str.at var7 74)))
(assert (= "f" (str.at var40 857)))
(assert (= "y" (str.at var20 443)))
(assert (= "h" (str.at var60 410)))
(assert (= "p" (str.at var31 985)))
(assert (= "v" (str.at var32 795)))
(assert (= "B" (str.at var41 201)))
(assert (= "3" (str.at var12 97)))
(assert (= "D" (str.at var31 533)))
(assert (= "j" (str.at var0 755)))
(assert (= "T" (str.at var27 996)))
(assert (= "'" (str.at var48 313)))
(assert (= "\\" (str.at var26 126)))
(assert (= "'" (str.at var9 258)))
(assert (= "." (str.at var35 518)))
(assert (= "Y" (str.at var43 489)))
(assert (= "E" (str.at var25 105)))
(assert (= "J" (str.at var2 116)))
(assert (= "$" (str.at var56 471)))
(assert (= "I" (str.at var28 583)))
(assert (= "t" (str.at var23 623)))
(assert (= "K" (str.at var60 382)))
(assert (= "E" (str.at var45 121)))
(assert (= "5" (str.at var9 663)))
(assert (= "e" (str.at var36 764)))
(assert (= "&" (str.at var47 734)))
(assert (= "l" (str.at var38 296)))
(assert (= "j" (str.at var8 728)))
(assert (= ">" (str.at var9 859)))
(assert (= "Y" (str.at var13 362)))
(assert (= "X" (str.at var48 957)))
(assert (= "m" (str.at var55 608)))
(assert (= "m" (str.at var6 742)))
(assert (= "y" (str.at var24 937)))
(assert (= "k" (str.at var60 781)))
(assert (= "/" (str.at var52 315)))
(check-sat)
(get-model)